cliques=[{7,0,44},{41,1,14},{7,2},{8,3},{34,4},{5,43},{34,6},{29,7},{26,8,40},{20,9,48},{9,48,10},{47,11},{39,12,33},{39,13},{21,14},{15,38},{8,16},{39,17},{26,18},{6,42,19},{20,9,48},{21,43,47},{43,22},{29,23},{24,19},{25,47},{26,8,40},{27,48},{28},{29,7},{35,33,30},{31,49},{6,32},{39,12,33},{34,37},{35,12,33},{26,36,40},{34,37},{15,38},{39,12,33},{26,8,40},{5,41},{6,42,19},{21,43,47},{31,44},{41,45},{20,46},{21,43,47},{20,9,48},{34,49}];
nr_cliques=50;
